(set-logic HORN)
(set-info :source |
  Benchmark: test_safe_2019/mochi/enc-rev_append.ml
  Generated by MoCHi
|)
(set-info :status unknown)
(declare-fun |fail_20[0:0]| ( Int) Bool)
(declare-fun |rev[0:1][0:0]| ( Int  Int) Bool)
(declare-fun |rev[0:0]| ( Int) Bool)
(assert (not (exists ((x0 Int)) (|fail_20[0:0]| x0))))
(assert (forall ((x0 Int)(x3 Int)(x1 Int)) (=> (and (|rev[0:1][0:0]| x1 x3) (not (= x3 x1))) (|fail_20[0:0]| x0))))
(assert (forall ((x1 Int)(x0 Int)) (=> (and (|rev[0:0]| x1) (and (= x0 0) (= x1 0))) (|rev[0:1][0:0]| x1 x0))))
(assert (forall ((x0 Int)) (|rev[0:0]| x0)))
(check-sat)
(get-model)
(exit)
